; benchmark generated from python API
(set-info :status unknown)
(declare-fun x_days () (_ BitVec 32))
(assert
 (bvsle (_ bv4294930771 32) x_days))
(assert
 (bvsge (_ bv36523 32) x_days))
(assert
 (bvsge x_days (_ bv8341 32)))
(assert
 (bvsle x_days (_ bv8371 32)))
(assert
 (let ((?x3373 (bvadd x_days (_ bv730179 32))))
(let ((?x708 (bvsmod ?x3373 (_ bv146097 32))))
(let ((?x6062 (bvsdiv ?x708 (_ bv36524 32))))
(let ((?x7046 (ite (bvsle (_ bv4 32) ?x6062) (_ bv3 32) ?x6062)))
(let ((?x3578 (bvsub ?x708 (bvmul ?x7046 (_ bv36524 32)))))
(let ((?x2825 (bvsmod ?x3578 (_ bv1461 32))))
(let ((?x410 (bvsdiv ?x2825 (_ bv365 32))))
(let ((?x3476 (ite (bvsle (_ bv4 32) ?x410) (_ bv3 32) ?x410)))
(let ((?x3304 (bvadd (bvadd (bvmul (bvsdiv ?x3373 (_ bv146097 32)) (_ bv400 32)) (bvmul ?x7046 (_ bv100 32))) (bvmul (bvsdiv ?x3578 (_ bv1461 32)) (_ bv4 32)))))
(let ((?x5238 (bvadd (bvadd ?x3304 ?x3476) (_ bv1 32))))
(let (($x1098 (or (and (= (bvsmod ?x5238 (_ bv4 32)) (_ bv0 32)) (and (distinct (bvsmod ?x5238 (_ bv100 32)) (_ bv0 32)) true)) (= (bvsmod ?x5238 (_ bv400 32)) (_ bv0 32)))))
(let ((?x5563 (bvsub ?x2825 (bvmul ?x3476 (_ bv365 32)))))
(let ((?x3359 (ite $x1098 (_ bv31 32) (_ bv31 32))))
(let (($x1548 (bvsge ?x5563 ?x3359)))
(let ((?x1304 (ite $x1548 (bvadd (bvsub ?x5563 ?x3359) (_ bv1 32)) (bvadd (bvsub ?x5563 (ite $x1098 (_ bv0 32) (_ bv0 32))) (_ bv1 32)))))
(let ((?x1370 (ite $x1098 (_ bv60 32) (_ bv59 32))))
(let (($x4373 (bvsge ?x5563 ?x1370)))
(let ((?x5828 (ite $x1098 (_ bv91 32) (_ bv90 32))))
(let (($x3734 (bvsge ?x5563 ?x5828)))
(let ((?x1754 (ite $x3734 (bvadd (bvsub ?x5563 ?x5828) (_ bv1 32)) (ite $x4373 (bvadd (bvsub ?x5563 ?x1370) (_ bv1 32)) ?x1304))))
(let ((?x5726 (ite $x1098 (_ bv121 32) (_ bv120 32))))
(let (($x1122 (bvsge ?x5563 ?x5726)))
(let ((?x5591 (ite $x1098 (_ bv152 32) (_ bv151 32))))
(let (($x6996 (bvsge ?x5563 ?x5591)))
(let ((?x4368 (ite $x6996 (bvadd (bvsub ?x5563 ?x5591) (_ bv1 32)) (ite $x1122 (bvadd (bvsub ?x5563 ?x5726) (_ bv1 32)) ?x1754))))
(let ((?x3133 (ite $x1098 (_ bv182 32) (_ bv181 32))))
(let (($x582 (bvsge ?x5563 ?x3133)))
(let ((?x2005 (ite $x1098 (_ bv213 32) (_ bv212 32))))
(let (($x5515 (bvsge ?x5563 ?x2005)))
(let ((?x4549 (ite $x5515 (bvadd (bvsub ?x5563 ?x2005) (_ bv1 32)) (ite $x582 (bvadd (bvsub ?x5563 ?x3133) (_ bv1 32)) ?x4368))))
(let ((?x3087 (ite $x1098 (_ bv244 32) (_ bv243 32))))
(let (($x5820 (bvsge ?x5563 ?x3087)))
(let ((?x2810 (ite $x1098 (_ bv274 32) (_ bv273 32))))
(let (($x904 (bvsge ?x5563 ?x2810)))
(let ((?x5310 (ite $x904 (bvadd (bvsub ?x5563 ?x2810) (_ bv1 32)) (ite $x5820 (bvadd (bvsub ?x5563 ?x3087) (_ bv1 32)) ?x4549))))
(let ((?x6477 (ite $x1098 (_ bv305 32) (_ bv304 32))))
(let (($x3630 (bvsge ?x5563 ?x6477)))
(let ((?x3291 (ite $x1098 (_ bv335 32) (_ bv334 32))))
(let (($x2809 (bvsge ?x5563 ?x3291)))
(let ((?x3161 (ite $x2809 (bvadd (bvsub ?x5563 ?x3291) (_ bv1 32)) (ite $x3630 (bvadd (bvsub ?x5563 ?x6477) (_ bv1 32)) ?x5310))))
(let ((?x6082 (ite $x6996 (_ bv6 32) (ite $x1122 (_ bv5 32) (ite $x3734 (_ bv4 32) (ite $x4373 (_ bv3 32) (ite $x1548 (_ bv2 32) (_ bv1 32))))))))
(let ((?x5543 (ite $x3630 (_ bv11 32) (ite $x904 (_ bv10 32) (ite $x5820 (_ bv9 32) (ite $x5515 (_ bv8 32) (ite $x582 (_ bv7 32) ?x6082)))))))
(let ((?x501 (bvadd (ite $x2809 (_ bv12 32) ?x5543) (bvadd (bvmul (_ bv0 32) (_ bv12 32)) (_ bv1 32)))))
(let ((?x5271 (bvsub (ite (bvuge ?x501 (_ bv2147483648 32)) (bvsub ?x501 (_ bv0 32)) ?x501) (_ bv1 32))))
(let ((?x5133 (bvsmod ?x5271 (_ bv12 32))))
(let ((?x3246 (bvadd ?x5133 (_ bv1 32))))
(let ((?x507 (ite (or (= ?x3246 (_ bv4 32)) (= ?x3246 (_ bv6 32)) (= ?x3246 (_ bv9 32)) (= ?x3246 (_ bv11 32))) (_ bv30 32) (_ bv31 32))))
(let ((?x8197 (bvsdiv ?x5271 (_ bv12 32))))
(let ((?x5092 (ite (and (bvuge ?x5271 (_ bv2147483648 32)) (and (distinct (_ bv0 32) ?x5133) true)) (bvsub ?x8197 (_ bv1 32)) ?x8197)))
(let ((?x3867 (bvadd ?x5238 (bvadd (_ bv0 32) ?x5092))))
(let (($x1237 (or (and (= (bvsmod ?x3867 (_ bv4 32)) (_ bv0 32)) (and (distinct (bvsmod ?x3867 (_ bv100 32)) (_ bv0 32)) true)) (= (bvsmod ?x3867 (_ bv400 32)) (_ bv0 32)))))
(let ((?x5985 (ite (= ?x3246 (_ bv2 32)) (ite $x1237 (_ bv29 32) (_ bv28 32)) ?x507)))
(let ((?x4478 (ite (bvsgt (_ bv1 32) ?x3161) (_ bv1 32) (ite (bvsgt ?x3161 ?x5985) ?x5985 ?x3161))))
(let ((?x4235 (ite (bvsgt (_ bv1 32) ?x4478) (_ bv1 32) (ite (bvsgt ?x4478 ?x5985) ?x5985 ?x4478))))
(let ((?x4362 (ite (= (_ bv2 32) ?x3246) (ite $x1237 (_ bv31 32) (_ bv31 32)) (ite (= (_ bv1 32) ?x3246) (ite $x1237 (_ bv0 32) (_ bv0 32)) (_ bv0 32)))))
(let ((?x5602 (ite (= (_ bv4 32) ?x3246) (ite $x1237 (_ bv91 32) (_ bv90 32)) (ite (= (_ bv3 32) ?x3246) (ite $x1237 (_ bv60 32) (_ bv59 32)) ?x4362))))
(let ((?x8217 (ite (= (_ bv6 32) ?x3246) (ite $x1237 (_ bv152 32) (_ bv151 32)) (ite (= (_ bv5 32) ?x3246) (ite $x1237 (_ bv121 32) (_ bv120 32)) ?x5602))))
(let ((?x4286 (ite (= (_ bv8 32) ?x3246) (ite $x1237 (_ bv213 32) (_ bv212 32)) (ite (= (_ bv7 32) ?x3246) (ite $x1237 (_ bv182 32) (_ bv181 32)) ?x8217))))
(let ((?x987 (ite (= (_ bv10 32) ?x3246) (ite $x1237 (_ bv274 32) (_ bv273 32)) (ite (= (_ bv9 32) ?x3246) (ite $x1237 (_ bv244 32) (_ bv243 32)) ?x4286))))
(let ((?x5171 (ite (= (_ bv12 32) ?x3246) (ite $x1237 (_ bv335 32) (_ bv334 32)) (ite (= (_ bv11 32) ?x3246) (ite $x1237 (_ bv305 32) (_ bv304 32)) ?x987))))
(let ((?x8016 (bvadd (bvmul (_ bv365 32) (bvsub ?x3867 (_ bv1 32))) (bvsdiv (bvsub ?x3867 (_ bv1 32)) (_ bv4 32)))))
(let ((?x2339 (bvadd (bvsub ?x8016 (bvsdiv (bvsub ?x3867 (_ bv1 32)) (_ bv100 32))) (bvsdiv (bvsub ?x3867 (_ bv1 32)) (_ bv400 32)))))
(let ((?x3549 (bvadd (bvadd (bvsub (bvadd (bvadd ?x2339 ?x5171) (bvsub ?x4235 (_ bv1 32))) (_ bv730179 32)) (_ bv0 32)) (_ bv730179 32))))
(let ((?x2850 (bvsmod ?x3549 (_ bv146097 32))))
(let ((?x4182 (bvsdiv ?x2850 (_ bv36524 32))))
(let ((?x1955 (ite (bvsle (_ bv4 32) ?x4182) (_ bv3 32) ?x4182)))
(let ((?x5549 (bvsub ?x2850 (bvmul ?x1955 (_ bv36524 32)))))
(let ((?x3866 (bvsmod ?x5549 (_ bv1461 32))))
(let ((?x1371 (bvsdiv ?x3866 (_ bv365 32))))
(let ((?x5451 (ite (bvsle (_ bv4 32) ?x1371) (_ bv3 32) ?x1371)))
(let ((?x1344 (bvadd (bvadd (bvmul (bvsdiv ?x3549 (_ bv146097 32)) (_ bv400 32)) (bvmul ?x1955 (_ bv100 32))) (bvmul (bvsdiv ?x5549 (_ bv1461 32)) (_ bv4 32)))))
(let ((?x1367 (bvadd (bvadd ?x1344 ?x5451) (_ bv1 32))))
(let (($x4780 (or (and (= (bvsmod ?x1367 (_ bv4 32)) (_ bv0 32)) (and (distinct (bvsmod ?x1367 (_ bv100 32)) (_ bv0 32)) true)) (= (bvsmod ?x1367 (_ bv400 32)) (_ bv0 32)))))
(let ((?x939 (bvsub ?x3866 (bvmul ?x5451 (_ bv365 32)))))
(let ((?x2185 (ite $x4780 (_ bv31 32) (_ bv31 32))))
(let (($x706 (bvsge ?x939 ?x2185)))
(let ((?x487 (ite $x706 (bvadd (bvsub ?x939 ?x2185) (_ bv1 32)) (bvadd (bvsub ?x939 (ite $x4780 (_ bv0 32) (_ bv0 32))) (_ bv1 32)))))
(let ((?x8219 (ite $x4780 (_ bv60 32) (_ bv59 32))))
(let (($x1627 (bvsge ?x939 ?x8219)))
(let ((?x2451 (ite $x4780 (_ bv91 32) (_ bv90 32))))
(let (($x3579 (bvsge ?x939 ?x2451)))
(let ((?x2146 (ite $x3579 (bvadd (bvsub ?x939 ?x2451) (_ bv1 32)) (ite $x1627 (bvadd (bvsub ?x939 ?x8219) (_ bv1 32)) ?x487))))
(let ((?x2091 (ite $x4780 (_ bv121 32) (_ bv120 32))))
(let (($x6881 (bvsge ?x939 ?x2091)))
(let ((?x2883 (ite $x4780 (_ bv152 32) (_ bv151 32))))
(let (($x4371 (bvsge ?x939 ?x2883)))
(let ((?x6148 (ite $x4371 (bvadd (bvsub ?x939 ?x2883) (_ bv1 32)) (ite $x6881 (bvadd (bvsub ?x939 ?x2091) (_ bv1 32)) ?x2146))))
(let ((?x5252 (ite $x4780 (_ bv182 32) (_ bv181 32))))
(let (($x3184 (bvsge ?x939 ?x5252)))
(let ((?x6125 (ite $x4780 (_ bv213 32) (_ bv212 32))))
(let (($x8172 (bvsge ?x939 ?x6125)))
(let ((?x7532 (ite $x8172 (bvadd (bvsub ?x939 ?x6125) (_ bv1 32)) (ite $x3184 (bvadd (bvsub ?x939 ?x5252) (_ bv1 32)) ?x6148))))
(let ((?x4739 (ite $x4780 (_ bv244 32) (_ bv243 32))))
(let (($x3848 (bvsge ?x939 ?x4739)))
(let ((?x877 (ite $x4780 (_ bv274 32) (_ bv273 32))))
(let (($x6937 (bvsge ?x939 ?x877)))
(let ((?x2407 (ite $x6937 (bvadd (bvsub ?x939 ?x877) (_ bv1 32)) (ite $x3848 (bvadd (bvsub ?x939 ?x4739) (_ bv1 32)) ?x7532))))
(let ((?x5071 (ite $x4780 (_ bv305 32) (_ bv304 32))))
(let (($x4204 (bvsge ?x939 ?x5071)))
(let ((?x2054 (ite $x4780 (_ bv335 32) (_ bv334 32))))
(let (($x3084 (bvsge ?x939 ?x2054)))
(let ((?x4379 (ite $x3084 (bvadd (bvsub ?x939 ?x2054) (_ bv1 32)) (ite $x4204 (bvadd (bvsub ?x939 ?x5071) (_ bv1 32)) ?x2407))))
(let (($x8156 (= (_ bv0 32) (_ bv0 32))))
(let (($x1066 (and (= (bvsmod (ite $x8156 ?x3867 ?x1367) (_ bv4 32)) (_ bv0 32)) (and (distinct (bvsmod (ite $x8156 ?x3867 ?x1367) (_ bv100 32)) (_ bv0 32)) true))))
(let (($x2539 (or $x1066 (= (bvsmod (ite $x8156 ?x3867 ?x1367) (_ bv400 32)) (_ bv0 32)))))
(let ((?x455 (ite $x4371 (_ bv6 32) (ite $x6881 (_ bv5 32) (ite $x3579 (_ bv4 32) (ite $x1627 (_ bv3 32) (ite $x706 (_ bv2 32) (_ bv1 32))))))))
(let ((?x5284 (ite $x4204 (_ bv11 32) (ite $x6937 (_ bv10 32) (ite $x3848 (_ bv9 32) (ite $x8172 (_ bv8 32) (ite $x3184 (_ bv7 32) ?x455)))))))
(let ((?x4673 (ite $x8156 ?x3246 (ite $x3084 (_ bv12 32) ?x5284))))
(let ((?x2166 (ite (= (_ bv2 32) ?x4673) (ite $x2539 (_ bv31 32) (_ bv31 32)) (ite (= (_ bv1 32) ?x4673) (ite $x2539 (_ bv0 32) (_ bv0 32)) (_ bv0 32)))))
(let ((?x3360 (ite (= (_ bv4 32) ?x4673) (ite $x2539 (_ bv91 32) (_ bv90 32)) (ite (= (_ bv3 32) ?x4673) (ite $x2539 (_ bv60 32) (_ bv59 32)) ?x2166))))
(let ((?x732 (ite (= (_ bv6 32) ?x4673) (ite $x2539 (_ bv152 32) (_ bv151 32)) (ite (= (_ bv5 32) ?x4673) (ite $x2539 (_ bv121 32) (_ bv120 32)) ?x3360))))
(let ((?x2263 (ite (= (_ bv8 32) ?x4673) (ite $x2539 (_ bv213 32) (_ bv212 32)) (ite (= (_ bv7 32) ?x4673) (ite $x2539 (_ bv182 32) (_ bv181 32)) ?x732))))
(let ((?x4181 (ite (= (_ bv10 32) ?x4673) (ite $x2539 (_ bv274 32) (_ bv273 32)) (ite (= (_ bv9 32) ?x4673) (ite $x2539 (_ bv244 32) (_ bv243 32)) ?x2263))))
(let ((?x1156 (ite (= (_ bv12 32) ?x4673) (ite $x2539 (_ bv335 32) (_ bv334 32)) (ite (= (_ bv11 32) ?x4673) (ite $x2539 (_ bv305 32) (_ bv304 32)) ?x4181))))
(let ((?x3239 (bvadd (bvmul (_ bv365 32) (bvsub (ite $x8156 ?x3867 ?x1367) (_ bv1 32))) (bvsdiv (bvsub (ite $x8156 ?x3867 ?x1367) (_ bv1 32)) (_ bv4 32)))))
(let ((?x1644 (bvadd (bvsub ?x3239 (bvsdiv (bvsub (ite $x8156 ?x3867 ?x1367) (_ bv1 32)) (_ bv100 32))) (bvsdiv (bvsub (ite $x8156 ?x3867 ?x1367) (_ bv1 32)) (_ bv400 32)))))
(let ((?x749 (bvsub (bvadd (bvadd ?x1644 ?x1156) (bvsub (ite $x8156 ?x4235 ?x4379) (_ bv1 32))) (_ bv730179 32))))
(not (= ?x749 (bvadd x_days (_ bv30 32))))))))))))))))))))))))))))))))))))))))))))))))))))))))))))))))))))))))))))))))))))))))))))))))))))))))))))))))))))))))))
(check-sat)
